(set-logic HORN)


(declare-fun |INV_MAIN_0| ( Int Int Int Int Int Int Int Int Int Int Int Int ) Bool)
(declare-fun |CHC_COMP_FALSE| ( ) Bool)

(assert
  (forall ( (A Int) (B Int) (C Int) (D Int) (E Int) (F Int) (G Int) (H Int) (I Int) (J Int) (K Int) (L Int) ) 
    (=>
      (and
        (and (= I B)
     (= H D)
     (= G B)
     (not (= D 0))
     (= C B)
     (or (not (= K E)) (= L F))
     (= J A))
      )
      (INV_MAIN_0 A B C D E F G H I J K L)
    )
  )
)
(assert
  (forall ( (A Int) (B Int) (C Int) (D Int) (E Int) (F Int) (G Int) (H Int) (I Int) (J Int) (K Int) (L Int) (M Int) (N Int) (O Int) (P Int) (Q Int) (R Int) (S Int) (T Int) (U Int) (V Int) (W Int) (X Int) ) 
    (=>
      (and
        (INV_MAIN_0 M N O P Q R S T U V W X)
        (let ((a!1 (not (= (+ K (* (- 1) G)) (- 1))))
      (a!2 (not (= (+ E (* (- 1) B)) (- 1)))))
  (and (= (+ S (* (- 1) G)) (- 1))
       (= (+ P (* (- 1) D)) 1)
       (= (+ N (* (- 1) B)) (- 1))
       (not (= H 0))
       (not (= D 0))
       (= X L)
       (= W K)
       (= V J)
       (= U I)
       (= R F)
       (= Q E)
       (= O C)
       (= M A)
       (or (= L J) a!1)
       (or (= F A) a!2)
       (= (+ T (* (- 1) H)) 1)))
      )
      (INV_MAIN_0 A B C D E F G H I J K L)
    )
  )
)
(assert
  (forall ( (A Int) (B Int) (C Int) (D Int) (E Int) (F Int) (G Int) (H Int) (I Int) (J Int) (K Int) (L Int) (M Int) (N Int) (O Int) (P Int) (Q Int) (R Int) (S Int) (T Int) (U Int) (V Int) (W Int) (X Int) (Y Int) (Z Int) (A1 Int) (B1 Int) (C1 Int) (D1 Int) (E1 Int) (F1 Int) (G1 Int) (H1 Int) (I1 Int) (J1 Int) ) 
    (=>
      (and
        (INV_MAIN_0 M N O P Q R S T U V W X)
        (INV_MAIN_0 Y Z A1 B1 C1 D1 E1 F1 G1 H1 I1 J1)
        (let ((a!1 (not (= (+ K (* (- 1) G)) (- 1))))
      (a!2 (not (= (+ C1 (* (- 1) B)) (- 1)))))
  (and (= (+ S (* (- 1) G)) (- 1))
       (= (+ P (* (- 1) D)) 1)
       (= (+ N (* (- 1) B)) (- 1))
       (= (+ E (* (- 1) B)) (- 1))
       (= (+ F1 (* (- 1) H)) 1)
       (= (+ E1 (* (- 1) G)) (- 1))
       (= (+ B1 (* (- 1) D)) 1)
       (= (+ Z (* (- 1) B)) (- 1))
       (= X L)
       (= W K)
       (= V J)
       (= U I)
       (= R D1)
       (= Q C1)
       (= O C)
       (= M A)
       (not (= H 0))
       (= F A)
       (not (= D 0))
       (= H1 J)
       (= G1 I)
       (= A1 C)
       (= Y A)
       (or (= L J) a!1)
       (or (not (= I1 K)) (= J1 L))
       (or (not (= D1 A)) a!2)
       (= (+ T (* (- 1) H)) 1)))
      )
      (INV_MAIN_0 A B C D E F G H I J K L)
    )
  )
)
(assert
  (forall ( (A Int) (B Int) (C Int) (D Int) (E Int) (F Int) (G Int) (H Int) (I Int) (J Int) (K Int) (L Int) (M Int) (N Int) (O Int) (P Int) (Q Int) (R Int) (S Int) (T Int) (U Int) (V Int) (W Int) (X Int) (Y Int) (Z Int) (A1 Int) (B1 Int) (C1 Int) (D1 Int) (E1 Int) (F1 Int) (G1 Int) (H1 Int) (I1 Int) (J1 Int) ) 
    (=>
      (and
        (INV_MAIN_0 M N O P Q R S T U V W X)
        (INV_MAIN_0 Y Z A1 B1 C1 D1 E1 F1 G1 H1 I1 J1)
        (let ((a!1 (not (= (+ E (* (- 1) B)) (- 1))))
      (a!2 (not (= (+ I1 (* (- 1) G)) (- 1)))))
  (and (= (+ S (* (- 1) G)) (- 1))
       (= (+ P (* (- 1) D)) 1)
       (= (+ N (* (- 1) B)) (- 1))
       (= (+ K (* (- 1) G)) (- 1))
       (= (+ F1 (* (- 1) H)) 1)
       (= (+ E1 (* (- 1) G)) (- 1))
       (= (+ B1 (* (- 1) D)) 1)
       (= (+ Z (* (- 1) B)) (- 1))
       (= X J1)
       (= W I1)
       (= V J)
       (= U I)
       (= R F)
       (= Q E)
       (= O C)
       (= M A)
       (= L J)
       (not (= H 0))
       (not (= D 0))
       (= H1 J)
       (= G1 I)
       (= A1 C)
       (= Y A)
       (or (= F A) a!1)
       (or (not (= J1 J)) a!2)
       (or (not (= C1 E)) (= D1 F))
       (= (+ T (* (- 1) H)) 1)))
      )
      (INV_MAIN_0 A B C D E F G H I J K L)
    )
  )
)
(assert
  (forall ( (A Int) (B Int) (C Int) (D Int) (E Int) (F Int) (G Int) (H Int) (I Int) (J Int) (K Int) (L Int) (M Int) (N Int) (O Int) (P Int) (Q Int) (R Int) (S Int) (T Int) (U Int) (V Int) (W Int) (X Int) ) 
    (=>
      (and
        (INV_MAIN_0 M N O P Q R S T U V W X)
        (let ((a!1 (not (= (+ W (* (- 1) G)) (- 1))))
      (a!2 (not (= (+ Q (* (- 1) B)) (- 1)))))
  (and (= (+ E (* (- 1) B)) (- 1))
       (= (+ T (* (- 1) H)) 1)
       (= (+ S (* (- 1) G)) (- 1))
       (= (+ P (* (- 1) D)) 1)
       (= (+ N (* (- 1) B)) (- 1))
       (= L J)
       (not (= H 0))
       (= F A)
       (not (= D 0))
       (= V J)
       (= U I)
       (= O C)
       (= M A)
       (or (not (= X J)) a!1)
       (or (not (= R A)) a!2)
       (= (+ K (* (- 1) G)) (- 1))))
      )
      (INV_MAIN_0 A B C D E F G H I J K L)
    )
  )
)
(assert
  (forall ( (A Int) (B Int) (C Int) (D Int) (E Int) (F Int) (G Int) (H Int) (I Int) (J Int) (K Int) (L Int) (M Int) (N Int) (O Int) (P Int) (Q Int) (R Int) (S Int) (T Int) (U Int) (V Int) (W Int) (X Int) (Y Int) (Z Int) (A1 Int) (B1 Int) (C1 Int) (D1 Int) (E1 Int) (F1 Int) (G1 Int) (H1 Int) (I1 Int) (J1 Int) (K1 Int) (L1 Int) (M1 Int) (N1 Int) (O1 Int) (P1 Int) (Q1 Int) (R1 Int) (S1 Int) (T1 Int) (U1 Int) (V1 Int) ) 
    (=>
      (and
        (INV_MAIN_0 M N O P Q R S T U V W X)
        (INV_MAIN_0 K1 L1 M1 N1 O1 P1 Q1 R1 S1 T1 U1 V1)
        (INV_MAIN_0 Y Z A1 B1 C1 D1 E1 F1 G1 H1 I1 J1)
        (let ((a!1 (not (= (+ O1 (* (- 1) B)) (- 1)))))
  (and (= (+ B1 (* (- 1) D)) 1)
       (= (+ Z (* (- 1) B)) (- 1))
       (= (+ P (* (- 1) D)) 1)
       (= (+ N (* (- 1) B)) (- 1))
       (= (+ N1 (* (- 1) D)) 1)
       (= (+ L1 (* (- 1) B)) (- 1))
       (= H 1)
       (= F A)
       (not (= D 0))
       (= J1 V1)
       (= I1 U1)
       (= H1 J)
       (= G1 I)
       (= F1 1)
       (= E1 G)
       (= D1 P1)
       (= C1 O1)
       (= A1 C)
       (= Y A)
       (= X L)
       (= W K)
       (= V J)
       (= U I)
       (= T 1)
       (= S G)
       (= R P1)
       (= Q O1)
       (= O C)
       (= M A)
       (= T1 J)
       (= S1 I)
       (= Q1 G)
       (= M1 C)
       (= K1 A)
       (or (not (= U1 K)) (= V1 L))
       (or (not (= P1 A)) a!1)
       (= (+ E (* (- 1) B)) (- 1))))
      )
      (INV_MAIN_0 A B C D E F G H I J K L)
    )
  )
)
(assert
  (forall ( (A Int) (B Int) (C Int) (D Int) (E Int) (F Int) (G Int) (H Int) (I Int) (J Int) (K Int) (L Int) (M Int) (N Int) (O Int) (P Int) (Q Int) (R Int) (S Int) (T Int) (U Int) (V Int) (W Int) (X Int) ) 
    (=>
      (and
        (INV_MAIN_0 M N O P Q R S T U V W X)
        (let ((a!1 (not (= (+ E (* (- 1) B)) (- 1)))))
  (and (= (+ N (* (- 1) B)) (- 1))
       (= H 1)
       (not (= D 0))
       (= X L)
       (= W K)
       (= V J)
       (= U I)
       (= T 1)
       (= S G)
       (= R F)
       (= Q E)
       (= O C)
       (= M A)
       (or (= F A) a!1)
       (= (+ P (* (- 1) D)) 1)))
      )
      (INV_MAIN_0 A B C D E F G H I J K L)
    )
  )
)
(assert
  (forall ( (A Int) (B Int) (C Int) (D Int) (E Int) (F Int) (G Int) (H Int) (I Int) (J Int) (K Int) (L Int) (M Int) (N Int) (O Int) (P Int) (Q Int) (R Int) (S Int) (T Int) (U Int) (V Int) (W Int) (X Int) (Y Int) (Z Int) (A1 Int) (B1 Int) (C1 Int) (D1 Int) (E1 Int) (F1 Int) (G1 Int) (H1 Int) (I1 Int) (J1 Int) (K1 Int) (L1 Int) (M1 Int) (N1 Int) (O1 Int) (P1 Int) (Q1 Int) (R1 Int) (S1 Int) (T1 Int) (U1 Int) (V1 Int) ) 
    (=>
      (and
        (INV_MAIN_0 M N O P Q R S T U V W X)
        (INV_MAIN_0 K1 L1 M1 N1 O1 P1 Q1 R1 S1 T1 U1 V1)
        (INV_MAIN_0 Y Z A1 B1 C1 D1 E1 F1 G1 H1 I1 J1)
        (let ((a!1 (not (= (+ U1 (* (- 1) G)) (- 1)))))
  (and (= (+ F1 (* (- 1) H)) 1)
       (= (+ E1 (* (- 1) G)) (- 1))
       (= (+ T (* (- 1) H)) 1)
       (= (+ S (* (- 1) G)) (- 1))
       (= (+ R1 (* (- 1) H)) 1)
       (= (+ Q1 (* (- 1) G)) (- 1))
       (= L J)
       (not (= H 0))
       (= D 1)
       (= J1 V1)
       (= I1 U1)
       (= H1 J)
       (= G1 I)
       (= D1 P1)
       (= C1 O1)
       (= B1 1)
       (= A1 C)
       (= Z B)
       (= Y A)
       (= X V1)
       (= W U1)
       (= V J)
       (= U I)
       (= R F)
       (= Q E)
       (= P 1)
       (= O C)
       (= N B)
       (= M A)
       (= T1 J)
       (= S1 I)
       (= M1 C)
       (= L1 B)
       (= K1 A)
       (or (not (= V1 J)) a!1)
       (or (not (= O1 E)) (= P1 F))
       (= (+ K (* (- 1) G)) (- 1))))
      )
      (INV_MAIN_0 A B C D E F G H I J K L)
    )
  )
)
(assert
  (forall ( (A Int) (B Int) (C Int) (D Int) (E Int) (F Int) (G Int) (H Int) (I Int) (J Int) (K Int) (L Int) (M Int) (N Int) (O Int) (P Int) (Q Int) (R Int) (S Int) (T Int) (U Int) (V Int) (W Int) (X Int) ) 
    (=>
      (and
        (INV_MAIN_0 M N O P Q R S T U V W X)
        (let ((a!1 (not (= (+ K (* (- 1) G)) (- 1)))))
  (and (= (+ S (* (- 1) G)) (- 1))
       (not (= H 0))
       (= D 1)
       (= X L)
       (= W K)
       (= V J)
       (= U I)
       (= R F)
       (= Q E)
       (= P 1)
       (= O C)
       (= N B)
       (= M A)
       (or (= L J) a!1)
       (= (+ T (* (- 1) H)) 1)))
      )
      (INV_MAIN_0 A B C D E F G H I J K L)
    )
  )
)
(assert
  (forall ( (A Int) (B Int) (C Int) (D Int) (E Int) (F Int) (G Int) (H Int) (I Int) (J Int) (K Int) (L Int) (M Int) (N Int) (O Int) (P Int) (Q Int) (R Int) (S Int) (T Int) (U Int) (V Int) (W Int) (X Int) (Y Int) (Z Int) (A1 Int) (B1 Int) (C1 Int) (D1 Int) (E1 Int) (F1 Int) (G1 Int) (H1 Int) (I1 Int) (J1 Int) ) 
    (=>
      (and
        (INV_MAIN_0 A B C D E F G H I J K L)
        (INV_MAIN_0 Y Z A1 B1 C1 D1 E1 F1 G1 H1 I1 J1)
        (INV_MAIN_0 M N O P Q R S T U V W X)
        (and (= W I1)
     (= V H1)
     (= U G1)
     (= T 1)
     (= S E1)
     (= R D1)
     (= Q C1)
     (= P 1)
     (= O A1)
     (= N Z)
     (= M Y)
     (not (= L Y))
     (= K Z)
     (= J H1)
     (= I G1)
     (= H 1)
     (= G E1)
     (= F D1)
     (= E C1)
     (= D 1)
     (= C A1)
     (= B Z)
     (= A Y)
     (or (not (= I1 Z)) (= L J1))
     (or (not (= E1 Z)) (= L H1))
     (or (not (= D1 Y)) (not (= C1 Z)))
     (= X J1))
      )
      CHC_COMP_FALSE
    )
  )
)
(assert
  (forall ( (A Int) (B Int) (C Int) (D Int) (E Int) (F Int) (G Int) (H Int) (I Int) (J Int) (K Int) (L Int) ) 
    (=>
      (and
        (INV_MAIN_0 A B C D E F G H I J K L)
        (and (= K E)
     (= H 1)
     (= D 1)
     (or (not (= G E)) (= L J))
     (or (not (= E B)) (= F A))
     (not (= L F)))
      )
      CHC_COMP_FALSE
    )
  )
)
(assert
  (forall ( (A Int) (B Int) (C Int) (D Int) (E Int) (F Int) (G Int) (H Int) (I Int) (J Int) (K Int) (L Int) (M Int) (N Int) (O Int) (P Int) (Q Int) (R Int) (S Int) (T Int) (U Int) (V Int) (W Int) (X Int) ) 
    (=>
      (and
        (INV_MAIN_0 A B C D E F G H I J K L)
        (INV_MAIN_0 M N O P Q R S T U V W X)
        (and (= K W)
     (= J V)
     (= I U)
     (= H 1)
     (= G N)
     (= F R)
     (= E Q)
     (= D 1)
     (= C O)
     (= B N)
     (= A M)
     (not (= V M))
     (or (not (= X V)) (not (= W N)))
     (or (not (= R M)) (not (= Q N)))
     (= L X))
      )
      CHC_COMP_FALSE
    )
  )
)
(assert
  (forall ( (A Int) (B Int) (C Int) (D Int) (E Int) (F Int) (G Int) (H Int) (I Int) (J Int) (K Int) (L Int) (M Int) (N Int) (O Int) (P Int) (Q Int) (R Int) (S Int) (T Int) (U Int) (V Int) (W Int) (X Int) (Y Int) (Z Int) (A1 Int) (B1 Int) (C1 Int) (D1 Int) (E1 Int) (F1 Int) (G1 Int) (H1 Int) (I1 Int) (J1 Int) ) 
    (=>
      (and
        (INV_MAIN_0 A B C D E F G H I J K L)
        (INV_MAIN_0 Y Z A1 B1 C1 D1 E1 F1 G1 H1 I1 J1)
        (INV_MAIN_0 M N O P Q R S T U V W X)
        (and (= W I1)
     (= V H1)
     (= U G1)
     (= T 1)
     (= S E1)
     (= R D1)
     (= Q C1)
     (= P 1)
     (= O A1)
     (= N Z)
     (= M Y)
     (= L J1)
     (= K I1)
     (= J H1)
     (= I G1)
     (= H 1)
     (= G E1)
     (not (= F H1))
     (= E E1)
     (= D 1)
     (= C A1)
     (= B Z)
     (= A Y)
     (or (not (= J1 H1)) (not (= I1 E1)))
     (or (not (= E1 C1)) (= F D1))
     (or (not (= E1 Z)) (= F Y))
     (= X J1))
      )
      CHC_COMP_FALSE
    )
  )
)
(assert
  (forall ( (A Int) (B Int) (C Int) (D Int) (E Int) (F Int) (G Int) (H Int) (I Int) (J Int) (K Int) (L Int) (M Int) (N Int) (O Int) (P Int) (Q Int) (R Int) (S Int) (T Int) (U Int) (V Int) (W Int) (X Int) ) 
    (=>
      (and
        (INV_MAIN_0 A B C D E F G H I J K L)
        (INV_MAIN_0 M N O P Q R S T U V W X)
        (and (= K W)
     (= J V)
     (= I U)
     (= H 1)
     (= G S)
     (= F R)
     (= E Q)
     (= D 1)
     (= C O)
     (= B N)
     (= A M)
     (not (= U O))
     (= L X))
      )
      CHC_COMP_FALSE
    )
  )
)
(assert
  (forall ( (CHC_COMP_UNUSED Bool) ) 
    (=>
      (and
        CHC_COMP_FALSE
      )
      false
    )
  )
)

(check-sat)
(exit)
